; benchmark generated from python API
(set-info :status unknown)
(declare-fun cell_1_7 () Int)
(declare-fun cell_1_8 () Int)
(declare-fun cell_2_2 () Int)
(declare-fun cell_2_3 () Int)
(declare-fun cell_3_5 () Int)
(declare-fun cell_3_6 () Int)
(declare-fun cell_4_1 () Int)
(declare-fun cell_4_2 () Int)
(declare-fun cell_5_7 () Int)
(declare-fun cell_5_9 () Int)
(declare-fun cell_6_4 () Int)
(declare-fun cell_6_6 () Int)
(declare-fun cell_7_1 () Int)
(declare-fun cell_7_5 () Int)
(declare-fun cell_8_3 () Int)
(declare-fun cell_8_4 () Int)
(declare-fun cell_9_9 () Int)
(declare-fun cell_1_1 () Int)
(declare-fun cell_2_1 () Int)
(declare-fun cell_3_1 () Int)
(declare-fun cell_5_1 () Int)
(declare-fun cell_6_1 () Int)
(declare-fun cell_8_1 () Int)
(declare-fun cell_9_1 () Int)
(declare-fun cell_1_2 () Int)
(declare-fun cell_3_2 () Int)
(declare-fun cell_5_2 () Int)
(declare-fun cell_6_2 () Int)
(declare-fun cell_7_2 () Int)
(declare-fun cell_8_2 () Int)
(declare-fun cell_9_2 () Int)
(declare-fun cell_1_3 () Int)
(declare-fun cell_3_3 () Int)
(declare-fun cell_4_3 () Int)
(declare-fun cell_5_3 () Int)
(declare-fun cell_6_3 () Int)
(declare-fun cell_7_3 () Int)
(declare-fun cell_9_3 () Int)
(declare-fun cell_1_4 () Int)
(declare-fun cell_2_4 () Int)
(declare-fun cell_3_4 () Int)
(declare-fun cell_4_4 () Int)
(declare-fun cell_5_4 () Int)
(declare-fun cell_7_4 () Int)
(declare-fun cell_9_4 () Int)
(declare-fun cell_1_5 () Int)
(declare-fun cell_2_5 () Int)
(declare-fun cell_4_5 () Int)
(declare-fun cell_5_5 () Int)
(declare-fun cell_6_5 () Int)
(declare-fun cell_8_5 () Int)
(declare-fun cell_9_5 () Int)
(declare-fun cell_1_6 () Int)
(declare-fun cell_2_6 () Int)
(declare-fun cell_4_6 () Int)
(declare-fun cell_5_6 () Int)
(declare-fun cell_7_6 () Int)
(declare-fun cell_8_6 () Int)
(declare-fun cell_9_6 () Int)
(declare-fun cell_2_7 () Int)
(declare-fun cell_3_7 () Int)
(declare-fun cell_4_7 () Int)
(declare-fun cell_6_7 () Int)
(declare-fun cell_7_7 () Int)
(declare-fun cell_8_7 () Int)
(declare-fun cell_9_7 () Int)
(declare-fun cell_2_8 () Int)
(declare-fun cell_3_8 () Int)
(declare-fun cell_4_8 () Int)
(declare-fun cell_5_8 () Int)
(declare-fun cell_6_8 () Int)
(declare-fun cell_7_8 () Int)
(declare-fun cell_8_8 () Int)
(declare-fun cell_9_8 () Int)
(declare-fun cell_1_9 () Int)
(declare-fun cell_2_9 () Int)
(declare-fun cell_3_9 () Int)
(declare-fun cell_4_9 () Int)
(declare-fun cell_6_9 () Int)
(declare-fun cell_7_9 () Int)
(declare-fun cell_8_9 () Int)
(assert
 (= cell_1_7 2))
(assert
 (= cell_1_8 1))
(assert
 (= cell_2_2 2))
(assert
 (= cell_2_3 1))
(assert
 (= cell_3_5 1))
(assert
 (= cell_3_6 2))
(assert
 (= cell_4_1 2))
(assert
 (= cell_4_2 1))
(assert
 (= cell_5_7 1))
(assert
 (= cell_5_9 2))
(assert
 (= cell_6_4 2))
(assert
 (= cell_6_6 1))
(assert
 (= cell_7_1 1))
(assert
 (= cell_7_5 2))
(assert
 (= cell_8_3 2))
(assert
 (= cell_8_4 1))
(assert
 (= cell_9_9 1))
(assert
 (let (($x352 (= cell_1_1 9)))
 (let (($x6828 (= cell_1_1 8)))
 (let (($x7634 (= cell_1_1 7)))
 (let (($x2943 (= cell_1_1 6)))
 (let (($x2609 (= cell_1_1 5)))
 (let (($x1602 (= cell_1_1 4)))
 (let (($x3451 (= cell_1_1 3)))
 (let (($x53 (= cell_1_1 2)))
 (let (($x690 (= cell_1_1 1)))
 (or $x690 $x53 $x3451 $x1602 $x2609 $x2943 $x7634 $x6828 $x352)))))))))))
(assert
 (let (($x7372 (= cell_2_1 9)))
 (let (($x3114 (= cell_2_1 8)))
 (let (($x92 (= cell_2_1 7)))
 (let (($x1237 (= cell_2_1 6)))
 (let (($x2860 (= cell_2_1 5)))
 (let (($x1561 (= cell_2_1 4)))
 (let (($x1710 (= cell_2_1 3)))
 (let (($x670 (= cell_2_1 2)))
 (let (($x1879 (= cell_2_1 1)))
 (or $x1879 $x670 $x1710 $x1561 $x2860 $x1237 $x92 $x3114 $x7372)))))))))))
(assert
 (let (($x1630 (= cell_3_1 9)))
 (let (($x2707 (= cell_3_1 8)))
 (let (($x2098 (= cell_3_1 7)))
 (let (($x772 (= cell_3_1 6)))
 (let (($x2452 (= cell_3_1 5)))
 (let (($x527 (= cell_3_1 4)))
 (let (($x7530 (= cell_3_1 3)))
 (let (($x2337 (= cell_3_1 2)))
 (let (($x2376 (= cell_3_1 1)))
 (or $x2376 $x2337 $x7530 $x527 $x2452 $x772 $x2098 $x2707 $x1630)))))))))))
(assert
 (let (($x2853 (= cell_4_1 2)))
 (or (= cell_4_1 1) $x2853 (= cell_4_1 3) (= cell_4_1 4) (= cell_4_1 5) (= cell_4_1 6) (= cell_4_1 7) (= cell_4_1 8) (= cell_4_1 9))))
(assert
 (let (($x1621 (= cell_5_1 9)))
 (let (($x2421 (= cell_5_1 8)))
 (let (($x1355 (= cell_5_1 7)))
 (let (($x2270 (= cell_5_1 6)))
 (let (($x28 (= cell_5_1 5)))
 (let (($x4043 (= cell_5_1 4)))
 (let (($x661 (= cell_5_1 3)))
 (let (($x1699 (= cell_5_1 2)))
 (let (($x2346 (= cell_5_1 1)))
 (or $x2346 $x1699 $x661 $x4043 $x28 $x2270 $x1355 $x2421 $x1621)))))))))))
(assert
 (let (($x3661 (= cell_6_1 9)))
 (let (($x2429 (= cell_6_1 8)))
 (let (($x863 (= cell_6_1 7)))
 (let (($x1629 (= cell_6_1 6)))
 (let (($x3357 (= cell_6_1 5)))
 (let (($x2047 (= cell_6_1 4)))
 (let (($x792 (= cell_6_1 3)))
 (let (($x3524 (= cell_6_1 2)))
 (let (($x3715 (= cell_6_1 1)))
 (or $x3715 $x3524 $x792 $x2047 $x3357 $x1629 $x863 $x2429 $x3661)))))))))))
(assert
 (let (($x2068 (= cell_7_1 1)))
 (or $x2068 (= cell_7_1 2) (= cell_7_1 3) (= cell_7_1 4) (= cell_7_1 5) (= cell_7_1 6) (= cell_7_1 7) (= cell_7_1 8) (= cell_7_1 9))))
(assert
 (let (($x3894 (= cell_8_1 9)))
 (let (($x1424 (= cell_8_1 8)))
 (let (($x7770 (= cell_8_1 7)))
 (let (($x3709 (= cell_8_1 6)))
 (let (($x2041 (= cell_8_1 5)))
 (let (($x6784 (= cell_8_1 4)))
 (let (($x1418 (= cell_8_1 3)))
 (let (($x2740 (= cell_8_1 2)))
 (let (($x2227 (= cell_8_1 1)))
 (or $x2227 $x2740 $x1418 $x6784 $x2041 $x3709 $x7770 $x1424 $x3894)))))))))))
(assert
 (let (($x576 (= cell_9_1 9)))
 (let (($x659 (= cell_9_1 8)))
 (let (($x3358 (= cell_9_1 7)))
 (let (($x241 (= cell_9_1 6)))
 (let (($x2720 (= cell_9_1 5)))
 (let (($x3550 (= cell_9_1 4)))
 (let (($x1180 (= cell_9_1 3)))
 (let (($x3341 (= cell_9_1 2)))
 (let (($x774 (= cell_9_1 1)))
 (or $x774 $x3341 $x1180 $x3550 $x2720 $x241 $x3358 $x659 $x576)))))))))))
(assert
 (let (($x1952 (= cell_1_2 9)))
 (let (($x1383 (= cell_1_2 8)))
 (let (($x1423 (= cell_1_2 7)))
 (let (($x2284 (= cell_1_2 6)))
 (let (($x2188 (= cell_1_2 5)))
 (let (($x3468 (= cell_1_2 4)))
 (let (($x2685 (= cell_1_2 3)))
 (let (($x1856 (= cell_1_2 2)))
 (let (($x291 (= cell_1_2 1)))
 (or $x291 $x1856 $x2685 $x3468 $x2188 $x2284 $x1423 $x1383 $x1952)))))))))))
(assert
 (let (($x2157 (= cell_2_2 2)))
 (or (= cell_2_2 1) $x2157 (= cell_2_2 3) (= cell_2_2 4) (= cell_2_2 5) (= cell_2_2 6) (= cell_2_2 7) (= cell_2_2 8) (= cell_2_2 9))))
(assert
 (let (($x1678 (= cell_3_2 9)))
 (let (($x1467 (= cell_3_2 8)))
 (let (($x4162 (= cell_3_2 7)))
 (let (($x945 (= cell_3_2 6)))
 (let (($x2815 (= cell_3_2 5)))
 (let (($x2639 (= cell_3_2 4)))
 (let (($x2687 (= cell_3_2 3)))
 (let (($x575 (= cell_3_2 2)))
 (let (($x3144 (= cell_3_2 1)))
 (or $x3144 $x575 $x2687 $x2639 $x2815 $x945 $x4162 $x1467 $x1678)))))))))))
(assert
 (let (($x439 (= cell_4_2 1)))
 (or $x439 (= cell_4_2 2) (= cell_4_2 3) (= cell_4_2 4) (= cell_4_2 5) (= cell_4_2 6) (= cell_4_2 7) (= cell_4_2 8) (= cell_4_2 9))))
(assert
 (let (($x2556 (= cell_5_2 9)))
 (let (($x3698 (= cell_5_2 8)))
 (let (($x129 (= cell_5_2 7)))
 (let (($x3176 (= cell_5_2 6)))
 (let (($x6813 (= cell_5_2 5)))
 (let (($x2779 (= cell_5_2 4)))
 (let (($x2746 (= cell_5_2 3)))
 (let (($x1764 (= cell_5_2 2)))
 (let (($x2213 (= cell_5_2 1)))
 (or $x2213 $x1764 $x2746 $x2779 $x6813 $x3176 $x129 $x3698 $x2556)))))))))))
(assert
 (let (($x1753 (= cell_6_2 9)))
 (let (($x2536 (= cell_6_2 8)))
 (let (($x1725 (= cell_6_2 7)))
 (let (($x4187 (= cell_6_2 6)))
 (let (($x1066 (= cell_6_2 5)))
 (let (($x3990 (= cell_6_2 4)))
 (let (($x3632 (= cell_6_2 3)))
 (let (($x38 (= cell_6_2 2)))
 (let (($x2298 (= cell_6_2 1)))
 (or $x2298 $x38 $x3632 $x3990 $x1066 $x4187 $x1725 $x2536 $x1753)))))))))))
(assert
 (let (($x1650 (= cell_7_2 9)))
 (let (($x182 (= cell_7_2 8)))
 (let (($x2048 (= cell_7_2 7)))
 (let (($x3743 (= cell_7_2 6)))
 (let (($x2912 (= cell_7_2 5)))
 (let (($x3542 (= cell_7_2 4)))
 (let (($x565 (= cell_7_2 3)))
 (let (($x1884 (= cell_7_2 2)))
 (let (($x572 (= cell_7_2 1)))
 (or $x572 $x1884 $x565 $x3542 $x2912 $x3743 $x2048 $x182 $x1650)))))))))))
(assert
 (let (($x1282 (= cell_8_2 9)))
 (let (($x3085 (= cell_8_2 8)))
 (let (($x3289 (= cell_8_2 7)))
 (let (($x509 (= cell_8_2 6)))
 (let (($x1984 (= cell_8_2 5)))
 (let (($x16 (= cell_8_2 4)))
 (let (($x2781 (= cell_8_2 3)))
 (let (($x2517 (= cell_8_2 2)))
 (let (($x2884 (= cell_8_2 1)))
 (or $x2884 $x2517 $x2781 $x16 $x1984 $x509 $x3289 $x3085 $x1282)))))))))))
(assert
 (let (($x7674 (= cell_9_2 9)))
 (let (($x1057 (= cell_9_2 8)))
 (let (($x3429 (= cell_9_2 7)))
 (let (($x681 (= cell_9_2 6)))
 (let (($x1749 (= cell_9_2 5)))
 (let (($x2311 (= cell_9_2 4)))
 (let (($x2705 (= cell_9_2 3)))
 (let (($x1931 (= cell_9_2 2)))
 (let (($x3012 (= cell_9_2 1)))
 (or $x3012 $x1931 $x2705 $x2311 $x1749 $x681 $x3429 $x1057 $x7674)))))))))))
(assert
 (let (($x2497 (= cell_1_3 9)))
 (let (($x2350 (= cell_1_3 8)))
 (let (($x1386 (= cell_1_3 7)))
 (let (($x1766 (= cell_1_3 6)))
 (let (($x2951 (= cell_1_3 5)))
 (let (($x1741 (= cell_1_3 4)))
 (let (($x422 (= cell_1_3 3)))
 (let (($x6804 (= cell_1_3 2)))
 (let (($x802 (= cell_1_3 1)))
 (or $x802 $x6804 $x422 $x1741 $x2951 $x1766 $x1386 $x2350 $x2497)))))))))))
(assert
 (let (($x284 (= cell_2_3 1)))
 (or $x284 (= cell_2_3 2) (= cell_2_3 3) (= cell_2_3 4) (= cell_2_3 5) (= cell_2_3 6) (= cell_2_3 7) (= cell_2_3 8) (= cell_2_3 9))))
(assert
 (let (($x3818 (= cell_3_3 9)))
 (let (($x285 (= cell_3_3 8)))
 (let (($x2634 (= cell_3_3 7)))
 (let (($x2171 (= cell_3_3 6)))
 (let (($x2252 (= cell_3_3 5)))
 (let (($x1546 (= cell_3_3 4)))
 (let (($x4183 (= cell_3_3 3)))
 (let (($x2436 (= cell_3_3 2)))
 (let (($x1411 (= cell_3_3 1)))
 (or $x1411 $x2436 $x4183 $x1546 $x2252 $x2171 $x2634 $x285 $x3818)))))))))))
(assert
 (let (($x3246 (= cell_4_3 9)))
 (let (($x344 (= cell_4_3 8)))
 (let (($x627 (= cell_4_3 7)))
 (let (($x2297 (= cell_4_3 6)))
 (let (($x3430 (= cell_4_3 5)))
 (let (($x2551 (= cell_4_3 4)))
 (let (($x2355 (= cell_4_3 3)))
 (let (($x1410 (= cell_4_3 2)))
 (let (($x2481 (= cell_4_3 1)))
 (or $x2481 $x1410 $x2355 $x2551 $x3430 $x2297 $x627 $x344 $x3246)))))))))))
(assert
 (let (($x6736 (= cell_5_3 9)))
 (let (($x2570 (= cell_5_3 8)))
 (let (($x2828 (= cell_5_3 7)))
 (let (($x2875 (= cell_5_3 6)))
 (let (($x2121 (= cell_5_3 5)))
 (let (($x1841 (= cell_5_3 4)))
 (let (($x118 (= cell_5_3 3)))
 (let (($x3809 (= cell_5_3 2)))
 (let (($x2305 (= cell_5_3 1)))
 (or $x2305 $x3809 $x118 $x1841 $x2121 $x2875 $x2828 $x2570 $x6736)))))))))))
(assert
 (let (($x717 (= cell_6_3 9)))
 (let (($x1202 (= cell_6_3 8)))
 (let (($x1859 (= cell_6_3 7)))
 (let (($x2669 (= cell_6_3 6)))
 (let (($x853 (= cell_6_3 5)))
 (let (($x3739 (= cell_6_3 4)))
 (let (($x3006 (= cell_6_3 3)))
 (let (($x1049 (= cell_6_3 2)))
 (let (($x629 (= cell_6_3 1)))
 (or $x629 $x1049 $x3006 $x3739 $x853 $x2669 $x1859 $x1202 $x717)))))))))))
(assert
 (let (($x1988 (= cell_7_3 9)))
 (let (($x4067 (= cell_7_3 8)))
 (let (($x1422 (= cell_7_3 7)))
 (let (($x1412 (= cell_7_3 6)))
 (let (($x621 (= cell_7_3 5)))
 (let (($x2101 (= cell_7_3 4)))
 (let (($x7986 (= cell_7_3 3)))
 (let (($x1338 (= cell_7_3 2)))
 (let (($x2611 (= cell_7_3 1)))
 (or $x2611 $x1338 $x7986 $x2101 $x621 $x1412 $x1422 $x4067 $x1988)))))))))))
(assert
 (let (($x7519 (= cell_8_3 2)))
 (or (= cell_8_3 1) $x7519 (= cell_8_3 3) (= cell_8_3 4) (= cell_8_3 5) (= cell_8_3 6) (= cell_8_3 7) (= cell_8_3 8) (= cell_8_3 9))))
(assert
 (let (($x2754 (= cell_9_3 9)))
 (let (($x2795 (= cell_9_3 8)))
 (let (($x982 (= cell_9_3 7)))
 (let (($x2010 (= cell_9_3 6)))
 (let (($x3336 (= cell_9_3 5)))
 (let (($x3048 (= cell_9_3 4)))
 (let (($x2264 (= cell_9_3 3)))
 (let (($x812 (= cell_9_3 2)))
 (let (($x7671 (= cell_9_3 1)))
 (or $x7671 $x812 $x2264 $x3048 $x3336 $x2010 $x982 $x2795 $x2754)))))))))))
(assert
 (let (($x295 (= cell_1_4 9)))
 (let (($x682 (= cell_1_4 8)))
 (let (($x6809 (= cell_1_4 7)))
 (let (($x1222 (= cell_1_4 6)))
 (let (($x2827 (= cell_1_4 5)))
 (let (($x1063 (= cell_1_4 4)))
 (let (($x1216 (= cell_1_4 3)))
 (let (($x991 (= cell_1_4 2)))
 (let (($x1867 (= cell_1_4 1)))
 (or $x1867 $x991 $x1216 $x1063 $x2827 $x1222 $x6809 $x682 $x295)))))))))))
(assert
 (let (($x3682 (= cell_2_4 9)))
 (let (($x701 (= cell_2_4 8)))
 (let (($x2940 (= cell_2_4 7)))
 (let (($x3492 (= cell_2_4 6)))
 (let (($x2069 (= cell_2_4 5)))
 (let (($x1849 (= cell_2_4 4)))
 (let (($x300 (= cell_2_4 3)))
 (let (($x644 (= cell_2_4 2)))
 (let (($x1017 (= cell_2_4 1)))
 (or $x1017 $x644 $x300 $x1849 $x2069 $x3492 $x2940 $x701 $x3682)))))))))))
(assert
 (let (($x3670 (= cell_3_4 9)))
 (let (($x2932 (= cell_3_4 8)))
 (let (($x3483 (= cell_3_4 7)))
 (let (($x1963 (= cell_3_4 6)))
 (let (($x2050 (= cell_3_4 5)))
 (let (($x120 (= cell_3_4 4)))
 (let (($x415 (= cell_3_4 3)))
 (let (($x2282 (= cell_3_4 2)))
 (let (($x1185 (= cell_3_4 1)))
 (or $x1185 $x2282 $x415 $x120 $x2050 $x1963 $x3483 $x2932 $x3670)))))))))))
(assert
 (let (($x2800 (= cell_4_4 9)))
 (let (($x3194 (= cell_4_4 8)))
 (let (($x4095 (= cell_4_4 7)))
 (let (($x1810 (= cell_4_4 6)))
 (let (($x466 (= cell_4_4 5)))
 (let (($x1544 (= cell_4_4 4)))
 (let (($x1838 (= cell_4_4 3)))
 (let (($x723 (= cell_4_4 2)))
 (let (($x4111 (= cell_4_4 1)))
 (or $x4111 $x723 $x1838 $x1544 $x466 $x1810 $x4095 $x3194 $x2800)))))))))))
(assert
 (let (($x3183 (= cell_5_4 9)))
 (let (($x1397 (= cell_5_4 8)))
 (let (($x1012 (= cell_5_4 7)))
 (let (($x4090 (= cell_5_4 6)))
 (let (($x3588 (= cell_5_4 5)))
 (let (($x1522 (= cell_5_4 4)))
 (let (($x1384 (= cell_5_4 3)))
 (let (($x4056 (= cell_5_4 2)))
 (let (($x1439 (= cell_5_4 1)))
 (or $x1439 $x4056 $x1384 $x1522 $x3588 $x4090 $x1012 $x1397 $x3183)))))))))))
(assert
 (let (($x2391 (= cell_6_4 2)))
 (or (= cell_6_4 1) $x2391 (= cell_6_4 3) (= cell_6_4 4) (= cell_6_4 5) (= cell_6_4 6) (= cell_6_4 7) (= cell_6_4 8) (= cell_6_4 9))))
(assert
 (let (($x1210 (= cell_7_4 9)))
 (let (($x1168 (= cell_7_4 8)))
 (let (($x3769 (= cell_7_4 7)))
 (let (($x3833 (= cell_7_4 6)))
 (let (($x3779 (= cell_7_4 5)))
 (let (($x3762 (= cell_7_4 4)))
 (let (($x4159 (= cell_7_4 3)))
 (let (($x2898 (= cell_7_4 2)))
 (let (($x3976 (= cell_7_4 1)))
 (or $x3976 $x2898 $x4159 $x3762 $x3779 $x3833 $x3769 $x1168 $x1210)))))))))))
(assert
 (let (($x1574 (= cell_8_4 1)))
 (or $x1574 (= cell_8_4 2) (= cell_8_4 3) (= cell_8_4 4) (= cell_8_4 5) (= cell_8_4 6) (= cell_8_4 7) (= cell_8_4 8) (= cell_8_4 9))))
(assert
 (let (($x3225 (= cell_9_4 9)))
 (let (($x2199 (= cell_9_4 8)))
 (let (($x4124 (= cell_9_4 7)))
 (let (($x6581 (= cell_9_4 6)))
 (let (($x2890 (= cell_9_4 5)))
 (let (($x1120 (= cell_9_4 4)))
 (let (($x3817 (= cell_9_4 3)))
 (let (($x3654 (= cell_9_4 2)))
 (let (($x2302 (= cell_9_4 1)))
 (or $x2302 $x3654 $x3817 $x1120 $x2890 $x6581 $x4124 $x2199 $x3225)))))))))))
(assert
 (let (($x1541 (= cell_1_5 9)))
 (let (($x2187 (= cell_1_5 8)))
 (let (($x7693 (= cell_1_5 7)))
 (let (($x631 (= cell_1_5 6)))
 (let (($x1462 (= cell_1_5 5)))
 (let (($x1832 (= cell_1_5 4)))
 (let (($x2938 (= cell_1_5 3)))
 (let (($x1762 (= cell_1_5 2)))
 (let (($x31 (= cell_1_5 1)))
 (or $x31 $x1762 $x2938 $x1832 $x1462 $x631 $x7693 $x2187 $x1541)))))))))))
(assert
 (let (($x4132 (= cell_2_5 9)))
 (let (($x3943 (= cell_2_5 8)))
 (let (($x2494 (= cell_2_5 7)))
 (let (($x2064 (= cell_2_5 6)))
 (let (($x528 (= cell_2_5 5)))
 (let (($x1991 (= cell_2_5 4)))
 (let (($x2973 (= cell_2_5 3)))
 (let (($x2760 (= cell_2_5 2)))
 (let (($x934 (= cell_2_5 1)))
 (or $x934 $x2760 $x2973 $x1991 $x528 $x2064 $x2494 $x3943 $x4132)))))))))))
(assert
 (let (($x1654 (= cell_3_5 1)))
 (or $x1654 (= cell_3_5 2) (= cell_3_5 3) (= cell_3_5 4) (= cell_3_5 5) (= cell_3_5 6) (= cell_3_5 7) (= cell_3_5 8) (= cell_3_5 9))))
(assert
 (let (($x1310 (= cell_4_5 9)))
 (let (($x1101 (= cell_4_5 8)))
 (let (($x2316 (= cell_4_5 7)))
 (let (($x687 (= cell_4_5 6)))
 (let (($x3870 (= cell_4_5 5)))
 (let (($x2190 (= cell_4_5 4)))
 (let (($x382 (= cell_4_5 3)))
 (let (($x2671 (= cell_4_5 2)))
 (let (($x2161 (= cell_4_5 1)))
 (or $x2161 $x2671 $x382 $x2190 $x3870 $x687 $x2316 $x1101 $x1310)))))))))))
(assert
 (let (($x886 (= cell_5_5 9)))
 (let (($x3115 (= cell_5_5 8)))
 (let (($x3062 (= cell_5_5 7)))
 (let (($x4118 (= cell_5_5 6)))
 (let (($x2214 (= cell_5_5 5)))
 (let (($x296 (= cell_5_5 4)))
 (let (($x333 (= cell_5_5 3)))
 (let (($x2283 (= cell_5_5 2)))
 (let (($x1496 (= cell_5_5 1)))
 (or $x1496 $x2283 $x333 $x296 $x2214 $x4118 $x3062 $x3115 $x886)))))))))))
(assert
 (let (($x1747 (= cell_6_5 9)))
 (let (($x3203 (= cell_6_5 8)))
 (let (($x4150 (= cell_6_5 7)))
 (let (($x7963 (= cell_6_5 6)))
 (let (($x3295 (= cell_6_5 5)))
 (let (($x2383 (= cell_6_5 4)))
 (let (($x4083 (= cell_6_5 3)))
 (let (($x3214 (= cell_6_5 2)))
 (let (($x928 (= cell_6_5 1)))
 (or $x928 $x3214 $x4083 $x2383 $x3295 $x7963 $x4150 $x3203 $x1747)))))))))))
(assert
 (let (($x3489 (= cell_7_5 2)))
 (or (= cell_7_5 1) $x3489 (= cell_7_5 3) (= cell_7_5 4) (= cell_7_5 5) (= cell_7_5 6) (= cell_7_5 7) (= cell_7_5 8) (= cell_7_5 9))))
(assert
 (let (($x1018 (= cell_8_5 2)))
 (let (($x2750 (= cell_8_5 1)))
 (or $x2750 $x1018 (= cell_8_5 3) (= cell_8_5 4) (= cell_8_5 5) (= cell_8_5 6) (= cell_8_5 7) (= cell_8_5 8) (= cell_8_5 9)))))
(assert
 (let (($x2361 (= cell_9_5 9)))
 (let (($x1566 (= cell_9_5 8)))
 (let (($x1547 (= cell_9_5 7)))
 (let (($x3561 (= cell_9_5 6)))
 (let (($x3711 (= cell_9_5 5)))
 (let (($x1016 (= cell_9_5 4)))
 (let (($x2732 (= cell_9_5 3)))
 (let (($x290 (= cell_9_5 2)))
 (let (($x3165 (= cell_9_5 1)))
 (or $x3165 $x290 $x2732 $x1016 $x3711 $x3561 $x1547 $x1566 $x2361)))))))))))
(assert
 (let (($x1335 (= cell_1_6 9)))
 (let (($x1737 (= cell_1_6 8)))
 (let (($x1883 (= cell_1_6 7)))
 (let (($x79 (= cell_1_6 6)))
 (let (($x4089 (= cell_1_6 5)))
 (let (($x6753 (= cell_1_6 4)))
 (let (($x2539 (= cell_1_6 3)))
 (let (($x3177 (= cell_1_6 2)))
 (let (($x1834 (= cell_1_6 1)))
 (or $x1834 $x3177 $x2539 $x6753 $x4089 $x79 $x1883 $x1737 $x1335)))))))))))
(assert
 (let (($x1904 (= cell_2_6 9)))
 (let (($x2045 (= cell_2_6 8)))
 (let (($x2793 (= cell_2_6 7)))
 (let (($x1267 (= cell_2_6 6)))
 (let (($x1064 (= cell_2_6 5)))
 (let (($x3902 (= cell_2_6 4)))
 (let (($x274 (= cell_2_6 3)))
 (let (($x3382 (= cell_2_6 2)))
 (let (($x1805 (= cell_2_6 1)))
 (or $x1805 $x3382 $x274 $x3902 $x1064 $x1267 $x2793 $x2045 $x1904)))))))))))
(assert
 (let (($x2836 (= cell_3_6 2)))
 (or (= cell_3_6 1) $x2836 (= cell_3_6 3) (= cell_3_6 4) (= cell_3_6 5) (= cell_3_6 6) (= cell_3_6 7) (= cell_3_6 8) (= cell_3_6 9))))
(assert
 (let (($x1378 (= cell_4_6 9)))
 (let (($x1593 (= cell_4_6 8)))
 (let (($x7319 (= cell_4_6 7)))
 (let (($x3615 (= cell_4_6 6)))
 (let (($x3133 (= cell_4_6 5)))
 (let (($x2749 (= cell_4_6 4)))
 (let (($x860 (= cell_4_6 3)))
 (let (($x2737 (= cell_4_6 2)))
 (let (($x1033 (= cell_4_6 1)))
 (or $x1033 $x2737 $x860 $x2749 $x3133 $x3615 $x7319 $x1593 $x1378)))))))))))
(assert
 (let (($x1498 (= cell_5_6 9)))
 (let (($x4155 (= cell_5_6 8)))
 (let (($x3798 (= cell_5_6 7)))
 (let (($x430 (= cell_5_6 6)))
 (let (($x1821 (= cell_5_6 5)))
 (let (($x1652 (= cell_5_6 4)))
 (let (($x1146 (= cell_5_6 3)))
 (let (($x1969 (= cell_5_6 2)))
 (let (($x1024 (= cell_5_6 1)))
 (or $x1024 $x1969 $x1146 $x1652 $x1821 $x430 $x3798 $x4155 $x1498)))))))))))
(assert
 (let (($x2810 (= cell_6_6 1)))
 (or $x2810 (= cell_6_6 2) (= cell_6_6 3) (= cell_6_6 4) (= cell_6_6 5) (= cell_6_6 6) (= cell_6_6 7) (= cell_6_6 8) (= cell_6_6 9))))
(assert
 (let (($x3356 (= cell_7_6 9)))
 (let (($x485 (= cell_7_6 8)))
 (let (($x7345 (= cell_7_6 7)))
 (let (($x2657 (= cell_7_6 6)))
 (let (($x1584 (= cell_7_6 5)))
 (let (($x1862 (= cell_7_6 4)))
 (let (($x537 (= cell_7_6 3)))
 (let (($x1514 (= cell_7_6 2)))
 (let (($x1110 (= cell_7_6 1)))
 (or $x1110 $x1514 $x537 $x1862 $x1584 $x2657 $x7345 $x485 $x3356)))))))))))
(assert
 (let (($x2066 (= cell_8_6 2)))
 (let (($x3614 (= cell_8_6 1)))
 (or $x3614 $x2066 (= cell_8_6 3) (= cell_8_6 4) (= cell_8_6 5) (= cell_8_6 6) (= cell_8_6 7) (= cell_8_6 8) (= cell_8_6 9)))))
(assert
 (let (($x2405 (= cell_9_6 9)))
 (let (($x728 (= cell_9_6 8)))
 (let (($x1515 (= cell_9_6 7)))
 (let (($x7047 (= cell_9_6 6)))
 (let (($x2318 (= cell_9_6 5)))
 (let (($x1591 (= cell_9_6 4)))
 (let (($x926 (= cell_9_6 3)))
 (let (($x245 (= cell_9_6 2)))
 (let (($x3737 (= cell_9_6 1)))
 (or $x3737 $x245 $x926 $x1591 $x2318 $x7047 $x1515 $x728 $x2405)))))))))))
(assert
 (let (($x3132 (= cell_1_7 2)))
 (or (= cell_1_7 1) $x3132 (= cell_1_7 3) (= cell_1_7 4) (= cell_1_7 5) (= cell_1_7 6) (= cell_1_7 7) (= cell_1_7 8) (= cell_1_7 9))))
(assert
 (let (($x2232 (= cell_2_7 9)))
 (let (($x393 (= cell_2_7 8)))
 (let (($x1792 (= cell_2_7 7)))
 (let (($x2637 (= cell_2_7 6)))
 (let (($x1728 (= cell_2_7 5)))
 (let (($x1181 (= cell_2_7 4)))
 (let (($x376 (= cell_2_7 3)))
 (let (($x78 (= cell_2_7 2)))
 (let (($x7030 (= cell_2_7 1)))
 (or $x7030 $x78 $x376 $x1181 $x1728 $x2637 $x1792 $x393 $x2232)))))))))))
(assert
 (let (($x3314 (= cell_3_7 9)))
 (let (($x1972 (= cell_3_7 8)))
 (let (($x2762 (= cell_3_7 7)))
 (let (($x7428 (= cell_3_7 6)))
 (let (($x1876 (= cell_3_7 5)))
 (let (($x870 (= cell_3_7 4)))
 (let (($x1656 (= cell_3_7 3)))
 (let (($x873 (= cell_3_7 2)))
 (let (($x2734 (= cell_3_7 1)))
 (or $x2734 $x873 $x1656 $x870 $x1876 $x7428 $x2762 $x1972 $x3314)))))))))))
(assert
 (let (($x3558 (= cell_4_7 9)))
 (let (($x7792 (= cell_4_7 8)))
 (let (($x2937 (= cell_4_7 7)))
 (let (($x606 (= cell_4_7 6)))
 (let (($x1298 (= cell_4_7 5)))
 (let (($x6952 (= cell_4_7 4)))
 (let (($x1645 (= cell_4_7 3)))
 (let (($x3230 (= cell_4_7 2)))
 (let (($x1707 (= cell_4_7 1)))
 (or $x1707 $x3230 $x1645 $x6952 $x1298 $x606 $x2937 $x7792 $x3558)))))))))))
(assert
 (let (($x2980 (= cell_5_7 1)))
 (or $x2980 (= cell_5_7 2) (= cell_5_7 3) (= cell_5_7 4) (= cell_5_7 5) (= cell_5_7 6) (= cell_5_7 7) (= cell_5_7 8) (= cell_5_7 9))))
(assert
 (let (($x44 (= cell_6_7 2)))
 (let (($x3210 (= cell_6_7 1)))
 (or $x3210 $x44 (= cell_6_7 3) (= cell_6_7 4) (= cell_6_7 5) (= cell_6_7 6) (= cell_6_7 7) (= cell_6_7 8) (= cell_6_7 9)))))
(assert
 (let (($x7852 (= cell_7_7 9)))
 (let (($x3939 (= cell_7_7 8)))
 (let (($x3226 (= cell_7_7 7)))
 (let (($x2102 (= cell_7_7 6)))
 (let (($x611 (= cell_7_7 5)))
 (let (($x1946 (= cell_7_7 4)))
 (let (($x1132 (= cell_7_7 3)))
 (let (($x745 (= cell_7_7 2)))
 (let (($x3947 (= cell_7_7 1)))
 (or $x3947 $x745 $x1132 $x1946 $x611 $x2102 $x3226 $x3939 $x7852)))))))))))
(assert
 (let (($x1102 (= cell_8_7 9)))
 (let (($x276 (= cell_8_7 8)))
 (let (($x592 (= cell_8_7 7)))
 (let (($x3872 (= cell_8_7 6)))
 (let (($x796 (= cell_8_7 5)))
 (let (($x7651 (= cell_8_7 4)))
 (let (($x1475 (= cell_8_7 3)))
 (let (($x2761 (= cell_8_7 2)))
 (let (($x846 (= cell_8_7 1)))
 (or $x846 $x2761 $x1475 $x7651 $x796 $x3872 $x592 $x276 $x1102)))))))))))
(assert
 (let (($x2160 (= cell_9_7 9)))
 (let (($x2926 (= cell_9_7 8)))
 (let (($x549 (= cell_9_7 7)))
 (let (($x2648 (= cell_9_7 6)))
 (let (($x1182 (= cell_9_7 5)))
 (let (($x757 (= cell_9_7 4)))
 (let (($x2450 (= cell_9_7 3)))
 (let (($x799 (= cell_9_7 2)))
 (let (($x885 (= cell_9_7 1)))
 (or $x885 $x799 $x2450 $x757 $x1182 $x2648 $x549 $x2926 $x2160)))))))))))
(assert
 (let (($x1553 (= cell_1_8 1)))
 (or $x1553 (= cell_1_8 2) (= cell_1_8 3) (= cell_1_8 4) (= cell_1_8 5) (= cell_1_8 6) (= cell_1_8 7) (= cell_1_8 8) (= cell_1_8 9))))
(assert
 (let (($x1466 (= cell_2_8 2)))
 (let (($x4125 (= cell_2_8 1)))
 (or $x4125 $x1466 (= cell_2_8 3) (= cell_2_8 4) (= cell_2_8 5) (= cell_2_8 6) (= cell_2_8 7) (= cell_2_8 8) (= cell_2_8 9)))))
(assert
 (let (($x2090 (= cell_3_8 9)))
 (let (($x1994 (= cell_3_8 8)))
 (let (($x2814 (= cell_3_8 7)))
 (let (($x3290 (= cell_3_8 6)))
 (let (($x1461 (= cell_3_8 5)))
 (let (($x4018 (= cell_3_8 4)))
 (let (($x281 (= cell_3_8 3)))
 (let (($x3799 (= cell_3_8 2)))
 (let (($x1555 (= cell_3_8 1)))
 (or $x1555 $x3799 $x281 $x4018 $x1461 $x3290 $x2814 $x1994 $x2090)))))))))))
(assert
 (let (($x370 (= cell_4_8 9)))
 (let (($x2872 (= cell_4_8 8)))
 (let (($x2349 (= cell_4_8 7)))
 (let (($x3400 (= cell_4_8 6)))
 (let (($x6629 (= cell_4_8 5)))
 (let (($x3434 (= cell_4_8 4)))
 (let (($x2620 (= cell_4_8 3)))
 (let (($x2658 (= cell_4_8 2)))
 (let (($x2218 (= cell_4_8 1)))
 (or $x2218 $x2658 $x2620 $x3434 $x6629 $x3400 $x2349 $x2872 $x370)))))))))))
(assert
 (let (($x822 (= cell_5_8 9)))
 (let (($x1657 (= cell_5_8 8)))
 (let (($x1370 (= cell_5_8 7)))
 (let (($x1848 (= cell_5_8 6)))
 (let (($x3334 (= cell_5_8 5)))
 (let (($x1463 (= cell_5_8 4)))
 (let (($x2345 (= cell_5_8 3)))
 (let (($x2975 (= cell_5_8 2)))
 (let (($x3811 (= cell_5_8 1)))
 (or $x3811 $x2975 $x2345 $x1463 $x3334 $x1848 $x1370 $x1657 $x822)))))))))))
(assert
 (let (($x2583 (= cell_6_8 2)))
 (let (($x815 (= cell_6_8 1)))
 (or $x815 $x2583 (= cell_6_8 3) (= cell_6_8 4) (= cell_6_8 5) (= cell_6_8 6) (= cell_6_8 7) (= cell_6_8 8) (= cell_6_8 9)))))
(assert
 (let (($x4194 (= cell_7_8 9)))
 (let (($x2632 (= cell_7_8 8)))
 (let (($x1233 (= cell_7_8 7)))
 (let (($x7756 (= cell_7_8 6)))
 (let (($x1623 (= cell_7_8 5)))
 (let (($x4035 (= cell_7_8 4)))
 (let (($x1998 (= cell_7_8 3)))
 (let (($x3562 (= cell_7_8 2)))
 (let (($x2242 (= cell_7_8 1)))
 (or $x2242 $x3562 $x1998 $x4035 $x1623 $x7756 $x1233 $x2632 $x4194)))))))))))
(assert
 (let (($x2255 (= cell_8_8 9)))
 (let (($x1081 (= cell_8_8 8)))
 (let (($x1177 (= cell_8_8 7)))
 (let (($x4245 (= cell_8_8 6)))
 (let (($x752 (= cell_8_8 5)))
 (let (($x1667 (= cell_8_8 4)))
 (let (($x313 (= cell_8_8 3)))
 (let (($x3567 (= cell_8_8 2)))
 (let (($x452 (= cell_8_8 1)))
 (or $x452 $x3567 $x313 $x1667 $x752 $x4245 $x1177 $x1081 $x2255)))))))))))
(assert
 (let (($x1052 (= cell_9_8 9)))
 (let (($x2344 (= cell_9_8 8)))
 (let (($x102 (= cell_9_8 7)))
 (let (($x236 (= cell_9_8 6)))
 (let (($x1858 (= cell_9_8 5)))
 (let (($x2162 (= cell_9_8 4)))
 (let (($x650 (= cell_9_8 3)))
 (let (($x1484 (= cell_9_8 2)))
 (let (($x3786 (= cell_9_8 1)))
 (or $x3786 $x1484 $x650 $x2162 $x1858 $x236 $x102 $x2344 $x1052)))))))))))
(assert
 (let (($x2377 (= cell_1_9 9)))
 (let (($x175 (= cell_1_9 8)))
 (let (($x2359 (= cell_1_9 7)))
 (let (($x561 (= cell_1_9 6)))
 (let (($x1819 (= cell_1_9 5)))
 (let (($x7301 (= cell_1_9 4)))
 (let (($x3298 (= cell_1_9 3)))
 (let (($x3128 (= cell_1_9 2)))
 (let (($x3449 (= cell_1_9 1)))
 (or $x3449 $x3128 $x3298 $x7301 $x1819 $x561 $x2359 $x175 $x2377)))))))))))
(assert
 (let (($x2336 (= cell_2_9 9)))
 (let (($x1817 (= cell_2_9 8)))
 (let (($x712 (= cell_2_9 7)))
 (let (($x2949 (= cell_2_9 6)))
 (let (($x930 (= cell_2_9 5)))
 (let (($x3149 (= cell_2_9 4)))
 (let (($x950 (= cell_2_9 3)))
 (let (($x1103 (= cell_2_9 2)))
 (let (($x3021 (= cell_2_9 1)))
 (or $x3021 $x1103 $x950 $x3149 $x930 $x2949 $x712 $x1817 $x2336)))))))))))
(assert
 (let (($x3892 (= cell_3_9 9)))
 (let (($x2172 (= cell_3_9 8)))
 (let (($x2018 (= cell_3_9 7)))
 (let (($x3534 (= cell_3_9 6)))
 (let (($x189 (= cell_3_9 5)))
 (let (($x6906 (= cell_3_9 4)))
 (let (($x3966 (= cell_3_9 3)))
 (let (($x7748 (= cell_3_9 2)))
 (let (($x1223 (= cell_3_9 1)))
 (or $x1223 $x7748 $x3966 $x6906 $x189 $x3534 $x2018 $x2172 $x3892)))))))))))
(assert
 (let (($x4210 (= cell_4_9 9)))
 (let (($x3394 (= cell_4_9 8)))
 (let (($x2406 (= cell_4_9 7)))
 (let (($x2308 (= cell_4_9 6)))
 (let (($x50 (= cell_4_9 5)))
 (let (($x979 (= cell_4_9 4)))
 (let (($x505 (= cell_4_9 3)))
 (let (($x966 (= cell_4_9 2)))
 (let (($x548 (= cell_4_9 1)))
 (or $x548 $x966 $x505 $x979 $x50 $x2308 $x2406 $x3394 $x4210)))))))))))
(assert
 (let (($x7323 (= cell_5_9 2)))
 (or (= cell_5_9 1) $x7323 (= cell_5_9 3) (= cell_5_9 4) (= cell_5_9 5) (= cell_5_9 6) (= cell_5_9 7) (= cell_5_9 8) (= cell_5_9 9))))
(assert
 (let (($x3838 (= cell_6_9 9)))
 (let (($x1091 (= cell_6_9 8)))
 (let (($x940 (= cell_6_9 7)))
 (let (($x355 (= cell_6_9 6)))
 (let (($x3840 (= cell_6_9 5)))
 (let (($x984 (= cell_6_9 4)))
 (let (($x3951 (= cell_6_9 3)))
 (let (($x1550 (= cell_6_9 2)))
 (let (($x3827 (= cell_6_9 1)))
 (or $x3827 $x1550 $x3951 $x984 $x3840 $x355 $x940 $x1091 $x3838)))))))))))
(assert
 (let (($x662 (= cell_7_9 9)))
 (let (($x4180 (= cell_7_9 8)))
 (let (($x1135 (= cell_7_9 7)))
 (let (($x3050 (= cell_7_9 6)))
 (let (($x948 (= cell_7_9 5)))
 (let (($x1675 (= cell_7_9 4)))
 (let (($x365 (= cell_7_9 3)))
 (let (($x3287 (= cell_7_9 2)))
 (let (($x243 (= cell_7_9 1)))
 (or $x243 $x3287 $x365 $x1675 $x948 $x3050 $x1135 $x4180 $x662)))))))))))
(assert
 (let (($x3999 (= cell_8_9 9)))
 (let (($x4166 (= cell_8_9 8)))
 (let (($x7322 (= cell_8_9 7)))
 (let (($x2703 (= cell_8_9 6)))
 (let (($x7866 (= cell_8_9 5)))
 (let (($x2142 (= cell_8_9 4)))
 (let (($x2197 (= cell_8_9 3)))
 (let (($x7367 (= cell_8_9 2)))
 (let (($x2858 (= cell_8_9 1)))
 (or $x2858 $x7367 $x2197 $x2142 $x7866 $x2703 $x7322 $x4166 $x3999)))))))))))
(assert
 (let (($x2434 (= cell_9_9 1)))
 (or $x2434 (= cell_9_9 2) (= cell_9_9 3) (= cell_9_9 4) (= cell_9_9 5) (= cell_9_9 6) (= cell_9_9 7) (= cell_9_9 8) (= cell_9_9 9))))
(assert
 (and (distinct cell_1_1 cell_1_2 cell_1_3 cell_1_4 cell_1_5 cell_1_6 cell_1_7 cell_1_8 cell_1_9) true))
(assert
 (and (distinct cell_2_1 cell_2_2 cell_2_3 cell_2_4 cell_2_5 cell_2_6 cell_2_7 cell_2_8 cell_2_9) true))
(assert
 (and (distinct cell_3_1 cell_3_2 cell_3_3 cell_3_4 cell_3_5 cell_3_6 cell_3_7 cell_3_8 cell_3_9) true))
(assert
 (and (distinct cell_4_1 cell_4_2 cell_4_3 cell_4_4 cell_4_5 cell_4_6 cell_4_7 cell_4_8 cell_4_9) true))
(assert
 (and (distinct cell_5_1 cell_5_2 cell_5_3 cell_5_4 cell_5_5 cell_5_6 cell_5_7 cell_5_8 cell_5_9) true))
(assert
 (and (distinct cell_6_1 cell_6_2 cell_6_3 cell_6_4 cell_6_5 cell_6_6 cell_6_7 cell_6_8 cell_6_9) true))
(assert
 (and (distinct cell_7_1 cell_7_2 cell_7_3 cell_7_4 cell_7_5 cell_7_6 cell_7_7 cell_7_8 cell_7_9) true))
(assert
 (and (distinct cell_8_1 cell_8_2 cell_8_3 cell_8_4 cell_8_5 cell_8_6 cell_8_7 cell_8_8 cell_8_9) true))
(assert
 (and (distinct cell_9_1 cell_9_2 cell_9_3 cell_9_4 cell_9_5 cell_9_6 cell_9_7 cell_9_8 cell_9_9) true))
(assert
 (and (distinct cell_1_1 cell_2_1 cell_3_1 cell_4_1 cell_5_1 cell_6_1 cell_7_1 cell_8_1 cell_9_1) true))
(assert
 (and (distinct cell_1_2 cell_2_2 cell_3_2 cell_4_2 cell_5_2 cell_6_2 cell_7_2 cell_8_2 cell_9_2) true))
(assert
 (and (distinct cell_1_3 cell_2_3 cell_3_3 cell_4_3 cell_5_3 cell_6_3 cell_7_3 cell_8_3 cell_9_3) true))
(assert
 (and (distinct cell_1_4 cell_2_4 cell_3_4 cell_4_4 cell_5_4 cell_6_4 cell_7_4 cell_8_4 cell_9_4) true))
(assert
 (and (distinct cell_1_5 cell_2_5 cell_3_5 cell_4_5 cell_5_5 cell_6_5 cell_7_5 cell_8_5 cell_9_5) true))
(assert
 (and (distinct cell_1_6 cell_2_6 cell_3_6 cell_4_6 cell_5_6 cell_6_6 cell_7_6 cell_8_6 cell_9_6) true))
(assert
 (and (distinct cell_1_7 cell_2_7 cell_3_7 cell_4_7 cell_5_7 cell_6_7 cell_7_7 cell_8_7 cell_9_7) true))
(assert
 (and (distinct cell_1_8 cell_2_8 cell_3_8 cell_4_8 cell_5_8 cell_6_8 cell_7_8 cell_8_8 cell_9_8) true))
(assert
 (and (distinct cell_1_9 cell_2_9 cell_3_9 cell_4_9 cell_5_9 cell_6_9 cell_7_9 cell_8_9 cell_9_9) true))
(assert
 (and (distinct cell_1_1 cell_1_2 cell_1_3 cell_2_1 cell_2_2 cell_2_3 cell_3_1 cell_3_2 cell_3_3) true))
(assert
 (and (distinct cell_1_4 cell_1_5 cell_1_6 cell_2_4 cell_2_5 cell_2_6 cell_3_4 cell_3_5 cell_3_6) true))
(assert
 (and (distinct cell_1_7 cell_1_8 cell_1_9 cell_2_7 cell_2_8 cell_2_9 cell_3_7 cell_3_8 cell_3_9) true))
(assert
 (and (distinct cell_4_1 cell_4_2 cell_4_3 cell_5_1 cell_5_2 cell_5_3 cell_6_1 cell_6_2 cell_6_3) true))
(assert
 (and (distinct cell_4_4 cell_4_5 cell_4_6 cell_5_4 cell_5_5 cell_5_6 cell_6_4 cell_6_5 cell_6_6) true))
(assert
 (and (distinct cell_4_7 cell_4_8 cell_4_9 cell_5_7 cell_5_8 cell_5_9 cell_6_7 cell_6_8 cell_6_9) true))
(assert
 (and (distinct cell_7_1 cell_7_2 cell_7_3 cell_8_1 cell_8_2 cell_8_3 cell_9_1 cell_9_2 cell_9_3) true))
(assert
 (and (distinct cell_7_4 cell_7_5 cell_7_6 cell_8_4 cell_8_5 cell_8_6 cell_9_4 cell_9_5 cell_9_6) true))
(assert
 (and (distinct cell_7_7 cell_7_8 cell_7_9 cell_8_7 cell_8_8 cell_8_9 cell_9_7 cell_9_8 cell_9_9) true))
(assert
 (let (($x3954 (and (distinct cell_5_9 cell_6_8 cell_7_7 cell_8_6) true)))
 (let (($x3047 (and (distinct cell_2_9 cell_3_8 cell_4_7 cell_5_6 cell_6_5 cell_7_4 cell_8_3 cell_9_2) true)))
 (let (($x1775 (and (distinct cell_1_8 cell_2_7 cell_3_6 cell_4_5 cell_5_4 cell_6_3 cell_7_2 cell_8_1) true)))
 (let (($x968 (and (distinct cell_1_5 cell_2_4 cell_3_3 cell_4_2) true)))
 (let (($x235 (and (distinct cell_5_1 cell_6_2 cell_7_3 cell_8_4) true)))
 (let (($x3532 (and (distinct cell_2_1 cell_3_2 cell_4_3 cell_5_4 cell_6_5 cell_7_6 cell_8_7 cell_9_8) true)))
 (let (($x21 (and (distinct cell_1_2 cell_2_3 cell_3_4 cell_4_5 cell_5_6 cell_6_7 cell_7_8 cell_8_9) true)))
 (let (($x866 (and (distinct cell_1_5 cell_2_6 cell_3_7 cell_4_8) true)))
 (and $x866 $x21 $x3532 $x235 $x968 $x1775 $x3047 $x3954))))))))))
(assert
 (= cell_9_8 2))
(check-sat)
